outputs/case_352.model.txt
restriction_measures_executed = False
asset_insufficient_to_cover_liabilities = False
net_asset_value_below_par = True
financial_report_comply_laws = True
business_operation_duration_years = 2
financial_report_submission_days = 30
improvement_plan_submitted = True
net_asset_value_below_half_par = False
net_asset_value_per_share = 8
net_assets = 0
liabilities = 0
financial_report_comply_gaap = True
par_value_per_share = 10
improvement_ordered = False
improvement_plan_executed = True
financial_report_compliance = True
improvement_plan_required = True
improvement_plan_submitted_and_executed = True
financial_report_approved_by_board = True
financial_report_submitted = True
business_license_duration_ok = True
asset_insufficient_improvement_ordered = False
restriction_applied = False
improvement_plan_compliance = True
restriction_level = 1
financial_report_legal_compliance = True
penalty = False
financial_report_audited_by_accountant = True
financial_report_signed_by_executives = True
legal_compliance = True
financial_report_submitted_on_time = True
asset_insufficient_improved = False
business_license_duration_ok_trust = True